n = 10;
m = 7;

G =
  [
    [ 0.0 0.0 0.02 0.0 0.0 0.0 0.0 0.56 0.0 0.0 ]
    [ 0.0 0.0 0.0 0.93 0.0 0.0 0.0 0.0 0.0 0.0 ]
    [ 0.02 0.0 0.0 0.0 0.06 0.0 0.58 0.0 0.0 0.0 ]
    [ 0.0 0.93 0.0 0.0 0.85 0.01 0.74 0.0 0.45 0.0 ]
    [ 0.0 0.0 0.06 0.85 0.0 0.0 0.0 0.0 0.0 0.09 ]
    [ 0.0 0.0 0.0 0.01 0.0 0.0 0.0 0.72 0.0 0.0 ]
    [ 0.0 0.0 0.58 0.74 0.0 0.0 0.0 0.0 0.0 0.0 ]
    [ 0.56 0.0 0.0 0.0 0.0 0.72 0.0 0.0 0.0 0.0 ]
    [ 0.0 0.0 0.0 0.45 0.0 0.0 0.0 0.0 0.0 0.0 ]
    [ 0.0 0.0 0.0 0.0 0.09 0.0 0.0 0.0 0.0 0.0 ]
  ];

H =
  [
    [ 0.0 0.0 0.38 0.0 0.14 0.0 0.0 ]
    [ 0.0 0.0 0.3 0.1 0.0 0.0 0.7 ]
    [ 0.38 0.3 0.0 0.93 0.0 0.88 0.87 ]
    [ 0.0 0.1 0.93 0.0 0.0 0.51 0.0 ]
    [ 0.14 0.0 0.0 0.0 0.0 0.0 0.0 ]
    [ 0.0 0.0 0.88 0.51 0.0 0.0 0.0 ]
    [ 0.0 0.7 0.87 0.0 0.0 0.0 0.0 ]
  ];